This file is generated by VASPKIT code
 1.000000
   10.2461409611831780   -0.0009798617461026   -0.0002685396307664
    8.5353847528675910    5.6680804917257648    0.0004170420276856
    8.5352762557236375    2.5740669493471406    5.0502452935203248
   Ni   O 
   16   16
Cartesian
 -0.00106483    -0.00243218    -0.00405006
 4.26647653    1.28511661    2.52997278
 4.27027367    2.82965118    0.00864866
 8.53533050    4.12107372    2.52533117
 5.12307048    -0.00048993    -0.00013427
 9.39070861    1.28654354    2.52498838
 9.39076286    2.83355031    0.00007425
 13.65840098    4.12058379    2.52519690
 6.82920049    2.06029189    1.26259845
 11.09683862    3.34732537    3.78772110
 11.09689287    4.89433214    1.26280697
 15.36453100    6.18136562    3.78792962
 11.95227097    2.05980196    1.26246418
 16.21841420    3.34358974    3.78644419
 16.22767680    4.89571190    1.25713300
 20.48400960    6.17827520    3.78159189
 3.41460025    1.03014595    0.63129922
 7.68223837    2.31717942    3.15642187
 7.68229262    3.86418619    0.63150775
 11.95089869    5.15278241    3.15657662
 8.53767073    1.02965602    0.63116495
 12.80530885    2.31668949    3.15628760
 12.80536310    3.86369626    0.63137348
 17.07288818    5.15112077    3.15913877
 10.24380074    3.09043784    1.89389767
 14.51698428    4.38151419    4.41416347
 14.51182513    5.92589660    1.89723288
 18.77913124    7.21151156    4.41922884
 15.36687122    3.08994791    1.89376340
 19.63450935    4.37698139    4.41888605
 19.63456360    5.92398816    1.89397192
 23.90220172    7.21102163    4.41909457
