This file is generated by VASPKIT code
 1.000000
   10.2461409611831780   -0.0009798617461026   -0.0002685396307664
    8.5353847528675910    5.6680804917257648    0.0004170420276856
    8.5352762557236375    2.5740669493471406    5.0502452935203248
   Ni   O 
   16   16
Cartesian
 -0.00139826    -0.00081182    -0.00724210
 4.26763813    1.28703347    2.52512265
 4.26769238    2.83404025    0.00020852
 8.53533050    4.12107372    2.52533117
 5.12307048    -0.00048993    -0.00013427
 9.39070861    1.28654354    2.52498838
 9.38872513    2.84222521    0.00004879
 13.65840098    4.12058379    2.52519690
 6.82920049    2.06029189    1.26259845
 11.09683862    3.34732537    3.78772110
 11.09689287    4.89433214    1.26280697
 15.36554025    6.17913831    3.79202784
 11.95227097    2.05980196    1.26246418
 16.21990910    3.34683544    3.78758683
 16.21996335    4.89384221    1.26267270
 20.48760148    6.18087568    3.78779535
 3.41460025    1.03014595    0.63129922
 7.68223837    2.31717942    3.15642187
 7.68229262    3.86418619    0.63150775
 11.94993075    5.15121967    3.15663039
 8.53767073    1.02965602    0.63116495
 12.80530885    2.31668949    3.15628760
 12.80536310    3.86369626    0.63137348
 17.07300123    5.15072974    3.15649612
 10.24343543    3.09023285    1.89010161
 14.51143887    4.37747132    4.41902032
 14.51144816    5.92461898    1.89287691
 18.77913124    7.21151156    4.41922884
 15.36687122    3.08994791    1.89376340
 19.63450935    4.37698139    4.41888605
 19.63652665    5.92089811    1.88991241
 23.90942978    7.20673112    4.41471556
