This file is generated by VASPKIT code
 1.000000
   10.2461409611831780   -0.0009798617461026   -0.0002685396307664
    8.5353847528675910    5.6680804917257648    0.0004170420276856
    8.5352762557236375    2.5740669493471406    5.0502452935203248
   Ni   O 
   16   16
Cartesian
 0.00000000    0.00000000    0.00000000
 4.26804317    1.28648088    2.52458055
 4.26551289    2.83521058    -0.00660259
 8.53533050    4.12107372    2.52533117
 5.12307048    -0.00048993    -0.00013427
 9.39070861    1.28654354    2.52498838
 9.38517729    2.83088853    -0.00525174
 13.65987190    4.11825574    2.53425845
 6.82920049    2.06029189    1.26259845
 11.09683862    3.34732537    3.78772110
 11.09689287    4.89433214    1.26280697
 15.36453100    6.18136562    3.78792962
 11.95216286    2.05995972    1.26254160
 16.22072720    3.34545542    3.77862809
 16.21996335    4.89384221    1.26267270
 20.48760148    6.18087568    3.78779535
 3.41460025    1.03014595    0.63129922
 7.68223837    2.31717942    3.15642187
 7.68229262    3.86418619    0.63150775
 11.94993075    5.15121967    3.15663039
 8.53767073    1.02965602    0.63116495
 12.80530885    2.31668949    3.15628760
 12.80450846    3.86509655    0.63339674
 17.07300123    5.15072974    3.15649612
 10.24380074    3.09043784    1.89389767
 14.51143887    4.37747132    4.41902032
 14.51149312    5.92447809    1.89410619
 18.77913124    7.21151156    4.41922884
 15.36799032    3.09536377    1.88934536
 19.63450935    4.37698139    4.41888605
 19.63456360    5.92398816    1.89397192
 23.90449405    7.21247690    4.41558413
