This file is generated by VASPKIT code
 1.000000
   10.2461409611831780   -0.0009798617461026   -0.0002685396307664
    8.5353847528675910    5.6680804917257648    0.0004170420276856
    8.5352762557236375    2.5740669493471406    5.0502452935203248
   Ni   O 
   16   16
Direct
    0.0000000000000000    0.0000000000000000    0.0000000000000000     Ni1
    0.0000000000000000    0.0000000000000000    0.5000000000000000     Ni2
    0.0000000000000000    0.5000000000000000    0.0000000000000000     Ni3
    0.0000000000000000    0.5000000000000000    0.5000000000000000     Ni4
    0.5000000000000000    0.0000000000000000    0.0000000000000000     Ni5
    0.5000000000000000    0.0000000000000000    0.5000000000000000     Ni6
    0.5000000000000000    0.5000000000000000    0.0000000000000000     Ni7
    0.5000000000000000    0.5000000000000000    0.5000000000000000     Ni8
    0.2500000000000000    0.2500000000000000    0.2500000000000000     Ni9
    0.2500000000000000    0.2500000000000000    0.7500000000000000    Ni10
    0.2500000000000000    0.7500000000000000    0.2500000000000000    Ni11
    0.2500000000000000    0.7500000000000000    0.7500000000000000    Ni12
    0.7500000000000000    0.2500000000000000    0.2500000000000000    Ni13
    0.7500000000000000    0.2500000000000000    0.7500000000000000    Ni14
    0.7500000000000000    0.7500000000000000    0.2500000000000000    Ni15
    0.7500000000000000    0.7500000000000000    0.7500000000000000    Ni16
    0.1250000000000000    0.1250000000000000    0.1250000000000000      O1
    0.1250000000000000    0.1250000000000000    0.6250000000000000      O2
    0.1250000000000000    0.6250000000000000    0.1250000000000000      O3
    0.1250000000000000    0.6250000000000000    0.6250000000000000      O4
    0.6250000000000000    0.1250000000000000    0.1250000000000000      O5
    0.6250000000000000    0.1250000000000000    0.6250000000000000      O6
    0.6250000000000000    0.6250000000000000    0.1250000000000000      O7
    0.6250000000000000    0.6250000000000000    0.6250000000000000      O8
    0.3750000000000000    0.3750000000000000    0.3750000000000000      O9
    0.3750000000000000    0.3750000000000000    0.8750000000000000     O10
    0.3750000000000000    0.8750000000000000    0.3750000000000000     O11
    0.3750000000000000    0.8750000000000000    0.8750000000000000     O12
    0.8750000000000000    0.3750000000000000    0.3750000000000000     O13
    0.8750000000000000    0.3750000000000000    0.8750000000000000     O14
    0.8750000000000000    0.8750000000000000    0.3750000000000000     O15
    0.8750000000000000    0.8750000000000000    0.8750000000000000     O16
