This file is generated by VASPKIT code
 1.000000
   10.2461409611831780   -0.0009798617461026   -0.0002685396307664
    8.5353847528675910    5.6680804917257648    0.0004170420276856
    8.5352762557236375    2.5740669493471406    5.0502452935203248
   Ni   O 
   16   16
Cartesian
 -0.00177760    0.00070846    0.00598822
 4.26763813    1.28703347    2.52512265
 4.26769238    2.83404025    0.00020852
 8.53533050    4.12107372    2.52533117
 5.12307048    -0.00048993    -0.00013427
 9.39070861    1.28654354    2.52498838
 9.39076286    2.83355031    0.00007425
 13.65840098    4.12058379    2.52519690
 6.82920049    2.06029189    1.26259845
 11.09683862    3.34732537    3.78772110
 11.09689287    4.89433214    1.26280697
 15.36453100    6.18136562    3.78792962
 11.95227097    2.05980196    1.26246418
 16.21990910    3.34683544    3.78758683
 16.21996335    4.89384221    1.26267270
 20.48760148    6.18087568    3.78779535
 3.41458931    1.03013838    0.63121396
 7.68087498    2.31118875    3.15029039
 7.68229262    3.86418619    0.63150775
 11.94993075    5.15121967    3.15663039
 8.53767073    1.02965602    0.63116495
 12.80326263    2.31354598    3.15619719
 12.80282716    3.86324995    0.62967509
 17.07052209    5.14648586    3.14994843
 10.24380074    3.09043784    1.89389767
 14.51142833    4.37744698    4.41708046
 14.51149312    5.92447809    1.89410619
 18.77913124    7.21151156    4.41922884
 15.36687122    3.08994791    1.89376340
 19.63285267    4.37690952    4.41446854
 19.63456360    5.92398816    1.89397192
 23.90220172    7.21102163    4.41909457
