This file is generated by VASPKIT code
 1.000000
   10.2461409611831780   -0.0009798617461026   -0.0002685396307664
    8.5353847528675910    5.6680804917257648    0.0004170420276856
    8.5352762557236375    2.5740669493471406    5.0502452935203248
   Ni   O 
   16   16
Cartesian
 -0.00002825    -0.00005290    0.00002150
 4.26763813    1.28703347    2.52512265
 4.26769238    2.83404025    0.00020852
 8.53647174    4.12421331    2.52226775
 5.12307048    -0.00048993    -0.00013427
 9.39070861    1.28654354    2.52498838
 9.39076286    2.83355031    0.00007425
 13.65840098    4.12058379    2.52519690
 6.82920049    2.06029189    1.26259845
 11.09683862    3.34732537    3.78772110
 11.09532568    4.89715789    1.26763993
 15.36453100    6.18136562    3.78792962
 11.95227097    2.05980196    1.26246418
 16.21990910    3.34683544    3.78758683
 16.21996335    4.89384221    1.26267270
 20.48760148    6.18087568    3.78779535
 3.41460025    1.03014595    0.63129922
 7.68475479    2.31542302    3.15942848
 7.68229262    3.86418619    0.63150775
 11.94993075    5.15121967    3.15663039
 8.53767073    1.02965602    0.63116495
 12.80530885    2.31668949    3.15628760
 12.80926683    3.86795721    0.63054552
 17.07482128    5.15388386    3.15116944
 10.24322292    3.09068040    1.88394513
 14.51143887    4.37747132    4.41902032
 14.51611331    5.92035231    1.89821923
 18.77913124    7.21151156    4.41922884
 15.36687122    3.08994791    1.89376340
 19.63450935    4.37698139    4.41888605
 19.63562668    5.91965224    1.90066100
 23.90133488    7.21224502    4.41812067
