This file is generated by VASPKIT code
 1.000000
   10.2461409611831780   -0.0009798617461026   -0.0002685396307664
    8.5353847528675910    5.6680804917257648    0.0004170420276856
    8.5352762557236375    2.5740669493471406    5.0502452935203248
   Ni   O 
   16   16
Cartesian
 0.00000000    0.00000000    0.00000000
 4.26763813    1.28703347    2.52512265
 4.26769238    2.83404025    0.00020852
 8.53506922    4.12095233    2.52552581
 5.12307048    -0.00048993    -0.00013427
 9.39503070    1.28726539    2.51635707
 9.39076286    2.83355031    0.00007425
 13.65840098    4.12058379    2.52519690
 6.82920049    2.06029189    1.26259845
 11.09694386    3.34695412    3.78810374
 11.09404487    4.89332830    1.26235675
 15.36453100    6.18136562    3.78792962
 11.95227097    2.05980196    1.26246418
 16.21990910    3.34683544    3.78758683
 16.21996335    4.89384221    1.26267270
 20.48824973    6.17542679    3.79240913
 3.41460025    1.03014595    0.63129922
 7.68100278    2.31551509    3.15505668
 7.68118915    3.86443400    0.62878067
 11.94993075    5.15121967    3.15663039
 8.53767073    1.02965602    0.63116495
 12.80530885    2.31668949    3.15628760
 12.80536310    3.86369626    0.63137348
 17.07300123    5.15072974    3.15649612
 10.24563604    3.09256649    1.89344670
 14.51143887    4.37747132    4.41902032
 14.51602887    5.92135995    1.89932549
 18.77913124    7.21151156    4.41922884
 15.36622013    3.08829618    1.90122480
 19.63450935    4.37698139    4.41888605
 19.63456360    5.92398816    1.89397192
 23.90220172    7.21102163    4.41909457
