This file is generated by VASPKIT code
 1.000000
   10.2461409611831780   -0.0009798617461026   -0.0002685396307664
    8.5353847528675910    5.6680804917257648    0.0004170420276856
    8.5352762557236375    2.5740669493471406    5.0502452935203248
   Ni   O 
   16   16
Cartesian
 0.00000000    0.00000000    0.00000000
 4.26763813    1.28703347    2.52512265
 4.26769238    2.83404025    0.00020852
 8.53533050    4.12107372    2.52533117
 5.12307048    -0.00048993    -0.00013427
 9.39070861    1.28654354    2.52498838
 9.39076286    2.83355031    0.00007425
 13.66555969    4.11790981    2.52348097
 6.82920049    2.06029189    1.26259845
 11.09499403    3.34889940    3.78639807
 11.09689287    4.89433214    1.26280697
 15.36453100    6.18136562    3.78792962
 11.95227097    2.05980196    1.26246418
 16.21990910    3.34683544    3.78758683
 16.21996335    4.89384221    1.26267270
 20.48760148    6.18087568    3.78779535
 3.41460025    1.03014595    0.63129922
 7.68593498    2.32099078    3.14940140
 7.68011444    3.86637585    0.62761143
 11.94647170    5.15120360    3.15982107
 8.54091957    1.02725662    0.63143417
 12.80611622    2.31888313    3.14799668
 12.80536310    3.86369626    0.63137348
 17.07300123    5.15072974    3.15649612
 10.24046886    3.09811309    1.88872020
 14.51143887    4.37747132    4.41902032
 14.51149312    5.92447809    1.89410619
 18.77913124    7.21151156    4.41922884
 15.36958311    3.08664527    1.89478018
 19.63450935    4.37698139    4.41888605
 19.63456360    5.92398816    1.89397192
 23.90220172    7.21102163    4.41909457
