This file is generated by VASPKIT code
 1.000000
   10.2461409611831780   -0.0009798617461026   -0.0002685396307664
    8.5353847528675910    5.6680804917257648    0.0004170420276856
    8.5352762557236375    2.5740669493471406    5.0502452935203248
   Ni   O 
   16   16
Cartesian
 0.00000000    0.00000000    0.00000000
 4.26763813    1.28703347    2.52512265
 4.26769238    2.83404025    0.00020852
 8.53820122    4.12186141    2.52593904
 5.12307048    -0.00048993    -0.00013427
 9.38823306    1.28611197    2.52764247
 9.39076286    2.83355031    0.00007425
 13.66463166    4.11695105    2.52378177
 6.82920049    2.06029189    1.26259845
 11.09683862    3.34732537    3.78772110
 11.09689287    4.89433214    1.26280697
 15.36453100    6.18136562    3.78792962
 11.95227097    2.05980196    1.26246418
 16.22434627    3.34761732    3.78722198
 16.21996335    4.89384221    1.26267270
 20.48760148    6.18087568    3.78779535
 3.41460025    1.03014595    0.63129922
 7.68057058    2.31375823    3.16102234
 7.68113416    3.86332070    0.63239869
 11.94993075    5.15121967    3.15663039
 8.53681049    1.02606359    0.63193260
 12.81316628    2.31746398    3.15300699
 12.80536310    3.86369626    0.63137348
 17.07300123    5.15072974    3.15649612
 10.24380074    3.09043784    1.89389767
 14.51143887    4.37747132    4.41902032
 14.51501302    5.91716776    1.89524717
 18.77913124    7.21151156    4.41922884
 15.36898706    3.08978129    1.89273976
 19.63450935    4.37698139    4.41888605
 19.63456360    5.92398816    1.89397192
 23.90327129    7.21083874    4.42147193
