This file is generated by VASPKIT code
 1.000000
   10.2461409611831780   -0.0009798617461026   -0.0002685396307664
    8.5353847528675910    5.6680804917257648    0.0004170420276856
    8.5352762557236375    2.5740669493471406    5.0502452935203248
   Ni   O 
   16   16
Cartesian
 -0.00011985    0.00029303    -0.00738813
 4.26645316    1.28582242    2.53213160
 4.26515239    2.83540424    0.00866997
 8.53533050    4.12107372    2.52533117
 5.12307048    -0.00048993    -0.00013427
 9.39070861    1.28654354    2.52498838
 9.39076286    2.83355031    0.00007425
 13.65840098    4.12058379    2.52519690
 6.82920049    2.06029189    1.26259845
 11.09683862    3.34732537    3.78772110
 11.09689287    4.89433214    1.26280697
 15.36453100    6.18136562    3.78792962
 11.95227097    2.05980196    1.26246418
 16.21990910    3.34683544    3.78758683
 16.21996335    4.89384221    1.26267270
 20.48760148    6.18087568    3.78779535
 3.41460025    1.03014595    0.63129922
 7.68223837    2.31717942    3.15642187
 7.68229262    3.86418619    0.63150775
 11.94993075    5.15121967    3.15663039
 8.53767073    1.02965602    0.63116495
 12.80545109    2.31663140    3.15686895
 12.80582804    3.86097074    0.63215743
 17.07300123    5.15072974    3.15649612
 10.24380074    3.09043784    1.89389767
 14.51143887    4.37747132    4.41902032
 14.51149312    5.92447809    1.89410619
 18.77913124    7.21151156    4.41922884
 15.36687122    3.08994791    1.89376340
 19.63450935    4.37698139    4.41888605
 19.63456360    5.92398816    1.89397192
 23.90220172    7.21102163    4.41909457
