This file is generated by VASPKIT code
 1.000000
   10.2461409611831780   -0.0009798617461026   -0.0002685396307664
    8.5353847528675910    5.6680804917257648    0.0004170420276856
    8.5352762557236375    2.5740669493471406    5.0502452935203248
   Ni   O 
   16   16
Cartesian
 0.00000000    0.00000000    0.00000000
 4.26763813    1.28703347    2.52512265
 4.26769238    2.83404025    0.00020852
 8.53628607    4.11964332    2.51719412
 5.12307048    -0.00048993    -0.00013427
 9.39070861    1.28654354    2.52498838
 9.39076286    2.83355031    0.00007425
 13.65618782    4.11505006    2.52570544
 6.82325421    2.06000651    1.25796242
 11.09683862    3.34732537    3.78772110
 11.09689287    4.89433214    1.26280697
 15.36453100    6.18136562    3.78792962
 11.95227097    2.05980196    1.26246418
 16.21975406    3.34674982    3.78718469
 16.21996335    4.89384221    1.26267270
 20.48559547    6.18700115    3.78920189
 3.41460025    1.03014595    0.63129922
 7.68223837    2.31717942    3.15642187
 7.68141439    3.86362252    0.63765091
 11.94993075    5.15121967    3.15663039
 8.53767073    1.02965602    0.63116495
 12.80530885    2.31668949    3.15628760
 12.80536310    3.86369626    0.63137348
 17.07300123    5.15072974    3.15649612
 10.24380074    3.09043784    1.89389767
 14.51666476    4.37810257    4.42016207
 14.51149312    5.92447809    1.89410619
 18.77913124    7.21151156    4.41922884
 15.36687122    3.08994791    1.89376340
 19.63450935    4.37698139    4.41888605
 19.63456360    5.92398816    1.89397192
 23.90278327    7.21343294    4.42637814
