This file is generated by VASPKIT code
 1.000000
   10.2461409611831780   -0.0009798617461026   -0.0002685396307664
    8.5353847528675910    5.6680804917257648    0.0004170420276856
    8.5352762557236375    2.5740669493471406    5.0502452935203248
   Ni   O 
   16   16
Cartesian
 0.00000000    0.00000000    0.00000000
 4.26763813    1.28703347    2.52512265
 4.26769238    2.83404025    0.00020852
 8.53533050    4.12107372    2.52533117
 5.12307048    -0.00048993    -0.00013427
 9.39039779    1.28749696    2.52547039
 9.39163201    2.83410666    0.00092875
 13.65840098    4.12058379    2.52519690
 6.82941778    2.06049220    1.26302855
 11.09683862    3.34732537    3.78772110
 11.09741873    4.89092225    1.26585859
 15.36453100    6.18136562    3.78792962
 11.96018007    2.06531304    1.26367259
 16.21875215    3.34735469    3.78334869
 16.21996335    4.89384221    1.26267270
 20.48760148    6.18087568    3.78779535
 3.41460025    1.03014595    0.63129922
 7.68223837    2.31717942    3.15642187
 7.68229262    3.86418619    0.63150775
 11.94993075    5.15121967    3.15663039
 8.53767073    1.02965602    0.63116495
 12.80530885    2.31668949    3.15628760
 12.80536310    3.86369626    0.63137348
 17.07300123    5.15072974    3.15649612
 10.24380074    3.09043784    1.89389767
 14.51143887    4.37747132    4.41902032
 14.51149312    5.92447809    1.89410619
 18.77913124    7.21151156    4.41922884
 15.36687122    3.08994791    1.89376340
 19.63418863    4.37039825    4.41961875
 19.63456360    5.92398816    1.89397192
 23.90220172    7.21102163    4.41909457
